\ Model Staff Scheduling Problem with Skill Level Constraints
\ LP format - for model browsing. Use MPS format to capture full model detail.
Minimize
  x[0,0] + x[0,1] + x[0,2] + x[0,3] + x[0,4] + x[1,0] + x[1,1] + x[1,2]
   + x[1,3] + x[1,4] + x[2,0] + x[2,1] + x[2,2] + x[2,3] + x[2,4] + x[3,0]
   + x[3,1] + x[3,2] + x[3,3] + x[3,4] + x[4,0] + x[4,1] + x[4,2] + x[4,3]
   + x[4,4] + x[5,0] + x[5,1] + x[5,2] + x[5,3] + x[5,4] + x[6,0] + x[6,1]
   + x[6,2] + x[6,3] + x[6,4] + x[7,0] + x[7,1] + x[7,2] + x[7,3] + x[7,4]
   + x[8,0] + x[8,1] + x[8,2] + x[8,3] + x[8,4] + x[9,0] + x[9,1] + x[9,2]
   + x[9,3] + x[9,4]
Subject To
 R0: x[0,0] + x[1,0] + x[2,0] + x[3,0] + x[4,0] + x[5,0] + x[6,0] + x[7,0]
   + x[8,0] + x[9,0] >= 2.49184421135532
 R1: x[0,1] + x[1,1] + x[2,1] + x[3,1] + x[4,1] + x[5,1] + x[6,1] + x[7,1]
   + x[8,1] + x[9,1] >= 3.426215744181561
 R2: x[0,2] + x[1,2] + x[2,2] + x[3,2] + x[4,2] + x[5,2] + x[6,2] + x[7,2]
   + x[8,2] + x[9,2] >= 3.462551337119957
 R3: x[0,3] + x[1,3] + x[2,3] + x[3,3] + x[4,3] + x[5,3] + x[6,3] + x[7,3]
   + x[8,3] + x[9,3] >= 4.352875812118931
 R4: x[0,4] + x[1,4] + x[2,4] + x[3,4] + x[4,4] + x[5,4] + x[6,4] + x[7,4]
   + x[8,4] + x[9,4] >= 3.813825550000577
 R5: 4.194207828431854 x[0,0] + 5.952583172647789 x[0,1]
   + 7.757704196015303 x[0,2] + 8.803485088213119 x[0,3]
   + 11.48212424297983 x[0,4] <= 32.01907095863517
 R6: 4.194207828431854 x[1,0] + 5.952583172647789 x[1,1]
   + 7.757704196015303 x[1,2] + 8.803485088213119 x[1,3]
   + 11.48212424297983 x[1,4] <= 33.97857691098429
 R7: 4.194207828431854 x[2,0] + 5.952583172647789 x[2,1]
   + 7.757704196015303 x[2,2] + 8.803485088213119 x[2,3]
   + 11.48212424297983 x[2,4] <= 35.76139903128241
 R8: 4.194207828431854 x[3,0] + 5.952583172647789 x[3,1]
   + 7.757704196015303 x[3,2] + 8.803485088213119 x[3,3]
   + 11.48212424297983 x[3,4] <= 24.61790954760373
 R9: 4.194207828431854 x[4,0] + 5.952583172647789 x[4,1]
   + 7.757704196015303 x[4,2] + 8.803485088213119 x[4,3]
   + 11.48212424297983 x[4,4] <= 24.14261821179515
 R10: 4.194207828431854 x[5,0] + 5.952583172647789 x[5,1]
   + 7.757704196015303 x[5,2] + 8.803485088213119 x[5,3]
   + 11.48212424297983 x[5,4] <= 24.97531320377198
 R11: 4.194207828431854 x[6,0] + 5.952583172647789 x[6,1]
   + 7.757704196015303 x[6,2] + 8.803485088213119 x[6,3]
   + 11.48212424297983 x[6,4] <= 26.28423561949513
 R12: 4.194207828431854 x[7,0] + 5.952583172647789 x[7,1]
   + 7.757704196015303 x[7,2] + 8.803485088213119 x[7,3]
   + 11.48212424297983 x[7,4] <= 27.55328538542712
 R13: 4.194207828431854 x[8,0] + 5.952583172647789 x[8,1]
   + 7.757704196015303 x[8,2] + 8.803485088213119 x[8,3]
   + 11.48212424297983 x[8,4] <= 28.10204569610086
 R14: 4.194207828431854 x[9,0] + 5.952583172647789 x[9,1]
   + 7.757704196015303 x[9,2] + 8.803485088213119 x[9,3]
   + 11.48212424297983 x[9,4] <= 25.81357626593897
 R15: x[0,0] <= 0
 R16: x[1,0] <= 1
 R17: x[2,0] <= 1
 R18: x[3,0] <= 1
 R19: x[4,0] <= 1
 R20: x[5,0] <= 1
 R21: x[6,0] <= 1
 R22: x[7,0] <= 1
 R23: x[8,0] <= 1
 R24: x[9,0] <= 1
 R25: x[0,1] <= 0
 R26: x[1,1] <= 1
 R27: x[2,1] <= 1
 R28: x[3,1] <= 1
 R29: x[4,1] <= 1
 R30: x[5,1] <= 1
 R31: x[6,1] <= 1
 R32: x[7,1] <= 1
 R33: x[8,1] <= 1
 R34: x[9,1] <= 1
 R35: x[0,2] <= 0
 R36: x[1,2] <= 1
 R37: x[2,2] <= 1
 R38: x[3,2] <= 0
 R39: x[4,2] <= 1
 R40: x[5,2] <= 1
 R41: x[6,2] <= 1
 R42: x[7,2] <= 1
 R43: x[8,2] <= 1
 R44: x[9,2] <= 1
 R45: x[0,3] <= 0
 R46: x[1,3] <= 0
 R47: x[2,3] <= 0
 R48: x[3,3] <= 0
 R49: x[4,3] <= 1
 R50: x[5,3] <= 1
 R51: x[6,3] <= 0
 R52: x[7,3] <= 1
 R53: x[8,3] <= 1
 R54: x[9,3] <= 1
 R55: x[0,4] <= 0
 R56: x[1,4] <= 0
 R57: x[2,4] <= 0
 R58: x[3,4] <= 0
 R59: x[4,4] <= 0
 R60: x[5,4] <= 0
 R61: x[6,4] <= 0
 R62: x[7,4] <= 0
 R63: x[8,4] <= 0
 R64: x[9,4] <= 0
Bounds
End
